0 3502
2 3452
5 3410
7 3383
8 3330
9 3262
17 3247
19 3201
25 3194
33 3159
34 3111
36 3108
45 3064
48 3041
56 3023
57 3021
60 3002
62 2988
67 2934
70 2919
72 2915
81 2914
87 2907
97 2895
98 2880
106 2872
234 2867
243 2863
312 2851
316 2845
318 2814
374 2797
393 2795
400 2793
447 2790
452 2789
470 2786
609 2783
634 2777
1119 2775
1139 2768
1268 2767
1277 2756
1933 2755
2887 2744
